nGates = 7;
nRows = 4;

alpha = [
  [0,0],
  [0,1],
  [1,0],
  [1,1]
];

desiredOutput = [0,1,1,0];

predecessor = [
  [2,3],
  [4,5],
  [6,7],
  [0,0],
  [0,0],
  [0,0],
  [0,0]
];